NAME : tsp_42_sol.txt
COMMENT : OR-Tools Guided Local Search
TYPE : TOUR
DIMENSION : 50
COST : 5842
STATUS : ROUTING_SUCCESS
GAP : 0.00% (Reference Solution)
TOUR_SECTION
1
48
25
15
24
28
9
8
14
38
35
32
4
3
11
33
31
18
19
6
41
29
23
40
43
12
20
13
30
47
37
45
2
7
50
39
16
34
26
46
5
36
27
17
49
10
22
21
44
42
-1
